UNSAT
The proof for unsat is:
([-9, -12] [7, 8, 9]) -> [7, 8, -12]
([7, 8, -12] [-5, -8]) -> [-5, 7, -12]
([-5, 7, -12] [10, 11, 12]) -> [-5, 7, 10, 11]
([-5, 7, 10, 11] [-5, -11]) -> [-5, 7, 10]
([7, 8, 9] [-1, -7]) -> [-1, 8, 9]
([-1, 8, 9] [-8, -11]) -> [-1, 9, -11]
([-1, 9, -11] [-6, -9]) -> [-1, -6, -11]
([-1, -6, -11] [4, 5, 6]) -> [-1, 4, 5, -11]
([-1, 4, 5, -11] [-1, -4]) -> [-1, 5, -11]
([-1, 5, -11] [-5, 7, 10]) -> [-1, 7, -11, 10]
([-1, 7, -11, 10] [-1, -7]) -> [-1, -11, 10]
([-1, -11, 10] [10, 11, 12]) -> [-1, 10, 12]
([-1, 10, 12] [-1, -10]) -> [-1, 12]
([-1, 12] [-6, -12]) -> [-1, -6]
([-1, -6] [4, 5, 6]) -> [-1, 4, 5]
([-1, 4, 5] [-1, -4]) -> [-1, 5]
([-1, 5] [-5, 7, 10]) -> [-1, 7, 10]
([-1, 7, 10] [-1, -7]) -> [-1, 10]
([-1, 10] [-1, -10]) -> [-1]
([-3, -12] [1, 2, 3]) -> [1, 2, -12]
([1, 2, -12] [-2, -8]) -> [1, -8, -12]
([1, -8, -12] [10, 11, 12]) -> [1, -8, 10, 11]
([1, -8, 10, 11] [-8, -11]) -> [1, -8, 10]
([-2, -11] [1, 2, 3]) -> [1, 3, -11]
([1, 3, -11] [-3, -9]) -> [1, -9, -11]
([1, -9, -11] [7, 8, 9]) -> [1, 7, 8, -11]
([1, 7, 8, -11] [1, -8, 10]) -> [1, 7, -11, 10]
([1, 7, -11, 10] [10, 11, 12]) -> [1, 7, 10, 12]
([1, 7, 10, 12] [-4, -7]) -> [1, -4, 10, 12]
([1, -4, 10, 12] [-4, -10]) -> [1, -4, 12]
([1, -4, 12] [4, 5, 6]) -> [1, 5, 6, 12]
([1, 5, 6, 12] [-9, -12]) -> [1, 5, 6, -9]
([1, 5, 6, -9] [7, 8, 9]) -> [1, 5, 6, 7, 8]
([1, 5, 6, 7, 8] [1, -8, 10]) -> [1, 5, 6, 7, 10]
([1, 5, 6, 7, 10] [-4, -7]) -> [1, -4, 5, 6, 10]
([1, -4, 5, 6, 10] [4, 5, 6]) -> [1, 5, 6, 10]
([1, 5, 6, 10] [-4, -10]) -> [1, -4, 5, 6]
([1, -4, 5, 6] [4, 5, 6]) -> [1, 5, 6]
([-7, -10] [7, 8, 9]) -> [8, -10, 9]
([8, -10, 9] [-5, -8]) -> [-5, -10, 9]
([-5, -10, 9] [1, 5, 6]) -> [1, 6, -10, 9]
([1, 6, -10, 9] [10, 11, 12]) -> [1, 6, 9, 11, 12]
([1, 6, 9, 11, 12] [-3, -9]) -> [1, -3, 6, 11, 12]
([1, -3, 6, 11, 12] [1, 2, 3]) -> [1, 2, 6, 11, 12]
([1, 2, 6, 11, 12] [-2, -5]) -> [1, -5, 6, 11, 12]
([1, -5, 6, 11, 12] [1, 5, 6]) -> [1, 6, 11, 12]
([1, 6, 11, 12] [-5, -11]) -> [1, -5, 6, 12]
([1, -5, 6, 12] [1, 5, 6]) -> [1, 6, 12]
([1, 6, 12] [-3, -12]) -> [1, -3, 6]
([1, -3, 6] [1, 2, 3]) -> [1, 2, 6]
([1, 2, 6] [-2, -5]) -> [1, -5, 6]
([1, -5, 6] [1, 5, 6]) -> [1, 6]
([10, 11, 12] [-7, -10]) -> [-7, 11, 12]
([-7, 11, 12] [7, 8, 9]) -> [8, 9, 11, 12]
([8, 9, 11, 12] [-2, -8]) -> [-2, 9, 11, 12]
([-2, 9, 11, 12] [-2, -11]) -> [-2, 9, 12]
([-2, 9, 12] [1, 2, 3]) -> [1, 3, 9, 12]
([1, 3, 9, 12] [-1]) -> [3, 9, 12]
([3, 9, 12] [-3, -6]) -> [-6, 9, 12]
([-6, 9, 12] [-6, -9]) -> [-6, 12]
([-6, 12] [-6, -12]) -> [-6]
([-6] [1, 6]) -> [1]
([1] [-1]) -> []
